Version identifier: 22.1.1.0 | 2022-11-28 | 9160aff4d
CPXPARAM_ClockType                               1
CPXPARAM_Read_DataCheck                          1
CPXPARAM_Threads                                 1
CPXPARAM_Simplex_Tolerances_Optimality           1.0000000000000001e-09
CPXPARAM_TimeLimit                               7200
CPXPARAM_MIP_Tolerances_AbsMIPGap                0
CPXPARAM_MIP_Tolerances_MIPGap                   0
CPXPARAM_MIP_Tolerances_Integrality              0
Tried aggregator 1 time.
MIQP Presolve eliminated 7562 rows and 4 columns.
MIQP Presolve modified 2608 coefficients.
Reduced MIQP has 14434 rows, 4996 columns, and 46011 nonzeros.
Reduced MIQP has 4496 binaries, 500 generals, 0 SOSs, and 0 indicators.
Reduced MIQP objective Q matrix has 500 nonzeros.
Presolve time = 0.06 sec. (38.93 ticks)
Probing time = 0.00 sec. (3.23 ticks)
Tried aggregator 1 time.
MIQP Presolve eliminated 500 rows and 0 columns.
Reduced MIQP has 13934 rows, 4996 columns, and 43511 nonzeros.
Reduced MIQP has 4496 binaries, 500 generals, 0 SOSs, and 0 indicators.
Reduced MIQP objective Q matrix has 500 nonzeros.
Presolve time = 0.04 sec. (30.13 ticks)
Classifier predicts products in MIQP should be linearized.
Probing time = 0.01 sec. (3.16 ticks)
Clique table members: 7680.
MIP emphasis: balance optimality and feasibility.
MIP search method: dynamic search.
Parallel mode: none, using 1 thread.
Root relaxation solution time = 12.62 sec. (26016.52 ticks)

        Nodes                                         Cuts/
   Node  Left     Objective  IInf  Best Integer    Best Bound    ItCnt     Gap

      0     0     2000.0000  2138                   2000.0000        6         
*     0+    0                         1642.0000     2000.0000            21.80%
      0     0     2000.0000  4160     1642.0000     Cuts: 581    30907   21.80%
      0     0     2000.0000  2504     1642.0000    Cuts: 3353    72685   21.80%
Heuristic still looking.
*     0+    0                         1654.0000     2000.0000            20.92%
      0     0        cutoff           1654.0000     2000.0000    72685   20.92%
      0     2     2000.0000  2566     1654.0000     2000.0000    72685   20.92%
Elapsed time = 467.26 sec. (226067.81 ticks, tree = 0.01 MB, solutions = 2)
      1     3     2000.0000  2618     1654.0000     2000.0000    75270   20.92%
      3     5     2000.0000  2686     1654.0000     2000.0000    76372   20.92%
      6     8     2000.0000  2605     1654.0000     2000.0000    78184   20.92%
     10    12     2000.0000  2651     1654.0000     2000.0000    79083   20.92%
     13    15     2000.0000  2549     1654.0000     2000.0000    79887   20.92%
     16    18     2000.0000  2669     1654.0000     2000.0000    80622   20.92%
     20    22     2000.0000  2526     1654.0000     2000.0000    81408   20.92%
     23    25     2000.0000  2865     1654.0000     2000.0000    82175   20.92%
     25    27     2000.0000  2785     1654.0000     2000.0000    82879   20.92%
     35    37     2000.0000  2623     1654.0000     2000.0000    88034   20.92%
Elapsed time = 477.37 sec. (231537.39 ticks, tree = 0.11 MB, solutions = 2)
     39    41     2000.0000  2509     1654.0000     2000.0000    92900   20.92%
     40    42     2000.0000  2607     1654.0000     2000.0000    96621   20.92%
     43    45     2000.0000  2447     1654.0000     2000.0000   101488   20.92%
     44    46     2000.0000  2484     1654.0000     2000.0000   105396   20.92%
     46    48     2000.0000  2469     1654.0000     2000.0000   109091   20.92%
     49    51     2000.0000  2458     1654.0000     2000.0000   112901   20.92%
     52    54     2000.0000  2592     1654.0000     2000.0000   115539   20.92%
     54    56     2000.0000  2492     1654.0000     2000.0000   119534   20.92%
     62    64     1998.0000  2409     1654.0000     2000.0000   135140   20.92%
     64    66     1998.0000  2567     1654.0000     2000.0000   138590   20.92%
Elapsed time = 510.58 sec. (248592.73 ticks, tree = 0.22 MB, solutions = 2)
     66    68     1998.0000  2437     1654.0000     2000.0000   145457   20.92%
     68    70     1998.0000  2316     1654.0000     2000.0000   152968   20.92%
     69    71     1998.0000  2365     1654.0000     2000.0000   157529   20.92%
     77    79     1998.0000  2480     1654.0000     2000.0000   161738   20.92%
     79    81     1998.0000  2485     1654.0000     2000.0000   170463   20.92%
     81    83     1998.0000  2310     1654.0000     2000.0000   183506   20.92%
     82    84     1996.0000  2387     1654.0000     2000.0000   211830   20.92%
     85    87     1998.0000  2287     1654.0000     2000.0000   215231   20.92%
     89    91     1998.0000  2314     1654.0000     2000.0000   218218   20.92%
     90    92     1998.0000  2217     1654.0000     2000.0000   222614   20.92%
Elapsed time = 566.41 sec. (276197.77 ticks, tree = 0.32 MB, solutions = 2)
     93    95     1998.0000  2163     1654.0000     2000.0000   225749   20.92%
     94    96     1998.0000  2267     1654.0000     2000.0000   247685   20.92%
     95    97     1998.0000  2727     1654.0000     2000.0000   483367   20.92%
     96    98     1998.0000  3146     1654.0000     2000.0000   543950   20.92%
     97    99     1997.8981  2341     1654.0000     2000.0000   562332   20.92%
     98   100     1997.9531  2417     1654.0000     2000.0000   679919   20.92%
     99   101     1998.0000  2674     1654.0000     2000.0000   799538   20.92%
    100   102     1998.0000  2844     1654.0000     2000.0000   918421   20.92%
    101   103     1996.2051  2196     1654.0000     2000.0000   934636   20.92%
    106   108     1994.6667  2062     1654.0000     2000.0000   940954   20.92%
Elapsed time = 1334.91 sec. (589372.10 ticks, tree = 0.38 MB, solutions = 2)
    107   109     1994.0000  2105     1654.0000     2000.0000  1012860   20.92%
    108   110     1994.0000  2673     1654.0000     2000.0000  1095822   20.92%
    109   111     1994.0000  1962     1654.0000     2000.0000  1116731   20.92%
    111   113     1994.0000  2416     1654.0000     2000.0000  1247551   20.92%
    112   114     1994.0000  2092     1654.0000     2000.0000  1254921   20.92%
    113   115     1994.0000  2386     1654.0000     2000.0000  1382733   20.92%
    114   116     1994.0000  1948     1654.0000     2000.0000  1458207   20.92%
    115   117     1994.0000  2485     1654.0000     2000.0000  1528025   20.92%
    116   118     1993.9808  2329     1654.0000     2000.0000  1553059   20.92%
    117   119     1993.9972  2327     1654.0000     2000.0000  1566095   20.92%
Elapsed time = 1753.60 sec. (754007.22 ticks, tree = 0.41 MB, solutions = 2)
    118   120     1993.9996  2564     1654.0000     2000.0000  1799402   20.92%
    119   121     1993.9907  2360     1654.0000     2000.0000  1814461   20.92%
*   120+  120                         1742.0000     2000.0000            14.81%
    120   122     1992.7500  1892     1742.0000     2000.0000  1945227   14.81%
    121   123     1992.7480  2355     1742.0000     2000.0000  1951666   14.81%
    122   124     1992.5653  2396     1742.0000     2000.0000  1986417   14.81%
    128   130     1991.8701  2312     1742.0000     2000.0000  1990404   14.81%
*   130+  130                         1772.0000     2000.0000            12.87%
*   130+  130                         1906.0000     2000.0000             4.93%
    130   132     1991.8701  2284     1906.0000     2000.0000  1991596    4.93%
    134   136     1991.8609  2311     1906.0000     2000.0000  1996563    4.93%
    139   141     1991.6634  2196     1906.0000     2000.0000  2001305    4.93%
    142   144     1990.5406  2273     1906.0000     2000.0000  2006655    4.93%
Elapsed time = 2099.94 sec. (889118.14 ticks, tree = 0.51 MB, solutions = 5)
    145   147     1989.7033  2264     1906.0000     2000.0000  2010711    4.93%
    149   151     1987.4719  2274     1906.0000     2000.0000  2016020    4.93%
    150   152     1988.6777  2249     1906.0000     2000.0000  2016373    4.93%
    157   159     1985.9057  2269     1906.0000     2000.0000  2020760    4.93%
    160   162     1984.9601  2257     1906.0000     2000.0000  2024549    4.93%
    163   165     1982.8296  2201     1906.0000     2000.0000  2028671    4.93%
    169   171     1982.7671  2220     1906.0000     2000.0000  2033608    4.93%
*   170+  170                         1916.0000     2000.0000             4.38%
    170   172     1982.2342  2210     1916.0000     2000.0000  2033979    4.38%
    172   174     1981.1094  2236     1916.0000     2000.0000  2038022    4.38%
    180   182     1978.3681  2175     1916.0000     2000.0000  2040802    4.38%
Elapsed time = 2151.17 sec. (912386.54 ticks, tree = 0.66 MB, solutions = 6)
    187   189     1975.3146  2165     1916.0000     2000.0000  2045732    4.38%
    200   202     1971.1956  2097     1916.0000     2000.0000  2049463    4.38%
    210   212     1965.2898  1991     1916.0000     2000.0000  2054014    4.38%
    220   222     1960.6247  2016     1916.0000     2000.0000  2057212    4.38%
    230   232     1954.0882  1928     1916.0000     2000.0000  2061035    4.38%
    243   245     1943.9485  1832     1916.0000     2000.0000  2064776    4.38%
    252   254     1938.3367  1749     1916.0000     2000.0000  2066606    4.38%
    270   272     1924.4790  1488     1916.0000     2000.0000  2070149    4.38%
*   287+  265                         1926.0000     2000.0000             3.84%
    287   267     2000.0000  2631     1926.0000     2000.0000  2072127    3.84%
    291   271     2000.0000  2635     1926.0000     2000.0000  2076681    3.84%
Elapsed time = 2183.26 sec. (927533.43 ticks, tree = 1.08 MB, solutions = 7)
    297   277     2000.0000  2530     1926.0000     2000.0000  2080428    3.84%
    299   279     2000.0000  2541     1926.0000     2000.0000  2085819    3.84%
    302   282     2000.0000  2631     1926.0000     2000.0000  2090202    3.84%
    304   284     2000.0000  2587     1926.0000     2000.0000  2093577    3.84%
    306   286     2000.0000  2535     1926.0000     2000.0000  2098339    3.84%
    310   290     2000.0000  2584     1926.0000     2000.0000  2104157    3.84%
    313   293     2000.0000  2546     1926.0000     2000.0000  2106830    3.84%
    315   295     2000.0000  2637     1926.0000     2000.0000  2117007    3.84%
    320   300     2000.0000  2552     1926.0000     2000.0000  2120191    3.84%
    325   305     2000.0000  2469     1926.0000     2000.0000  2124342    3.84%
Elapsed time = 2223.57 sec. (947731.74 ticks, tree = 1.19 MB, solutions = 7)
    328   308     2000.0000  2503     1926.0000     2000.0000  2129714    3.84%
    333   313     2000.0000  2443     1926.0000     2000.0000  2133600    3.84%
    340   320     2000.0000  2397     1926.0000     2000.0000  2138170    3.84%
    354   334     2000.0000  2382     1926.0000     2000.0000  2142463    3.84%
    363   343     2000.0000  2388     1926.0000     2000.0000  2146635    3.84%
    366   346     2000.0000  2306     1926.0000     2000.0000  2150212    3.84%
    370   350     2000.0000  2337     1926.0000     2000.0000  2156918    3.84%
    374   354     2000.0000  2341     1926.0000     2000.0000  2160455    3.84%
    377   357     2000.0000  2294     1926.0000     2000.0000  2164090    3.84%
    379   359     1999.9716  2381     1926.0000     2000.0000  2178274    3.84%
Elapsed time = 2260.56 sec. (965045.91 ticks, tree = 1.38 MB, solutions = 7)
    382   362     1999.0991  2402     1926.0000     2000.0000  2195841    3.84%
    390   370     2000.0000  2246     1926.0000     2000.0000  2209215    3.84%
    396   376     2000.0000  2220     1926.0000     2000.0000  2221823    3.84%
    400   380     2000.0000  2314     1926.0000     2000.0000  2231583    3.84%
    409   389     2000.0000  2223     1926.0000     2000.0000  2243808    3.84%
    413   393     2000.0000  2171     1926.0000     2000.0000  2256799    3.84%
    418   398     1999.9488  2443     1926.0000     2000.0000  2273843    3.84%
    420   400     1999.9615  2473     1926.0000     2000.0000  2287601    3.84%
    422   402     1999.9531  2536     1926.0000     2000.0000  2300559    3.84%
    426   406     1999.9572  2434     1926.0000     2000.0000  2314301    3.84%
Elapsed time = 2362.63 sec. (1013270.56 ticks, tree = 1.55 MB, solutions = 7)
    435   415     1999.9606  2443     1926.0000     2000.0000  2336394    3.84%
    440   420     1999.9150  2554     1926.0000     2000.0000  2350494    3.84%
    445   425     1999.8396  2454     1926.0000     2000.0000  2366206    3.84%
    452   432     1999.7207  2489     1926.0000     2000.0000  2382720    3.84%
    456   436     1999.5307  2472     1926.0000     2000.0000  2395355    3.84%
    458   438     1995.8416  2278     1926.0000     2000.0000  2413214    3.84%
    460   440     1993.9222  2321     1926.0000     2000.0000  2416358    3.84%
    473   453     1991.6467  2297     1926.0000     2000.0000  2428109    3.84%
    486   466     1988.8886  2304     1926.0000     2000.0000  2442200    3.84%
    500   480     1981.1136  2256     1926.0000     2000.0000  2450115    3.84%
Elapsed time = 2468.06 sec. (1062754.72 ticks, tree = 1.84 MB, solutions = 7)
*   510+  481                         1932.0000     2000.0000             3.52%
    510   483     2000.0000  2626     1932.0000     2000.0000  2459880    3.52%
    511   484     2000.0000  2622     1932.0000     2000.0000  2465247    3.52%
    517   490     2000.0000  2644     1932.0000     2000.0000  2477053    3.52%
    520   493     2000.0000  2559     1932.0000     2000.0000  2478912    3.52%
    530   503     1998.0000  2674     1932.0000     2000.0000  2490528    3.52%
    541   514     1998.0000  2755     1932.0000     2000.0000  2500697    3.52%
    549   522     1998.0000  2705     1932.0000     2000.0000  2511257    3.52%
    559   532     1998.0000  2674     1932.0000     2000.0000  2522021    3.52%
    566   539     1998.0000  2497     1932.0000     2000.0000  2536150    3.52%
    572   545     1998.0000  2669     1932.0000     2000.0000  2559551    3.52%
Elapsed time = 3167.89 sec. (1379736.86 ticks, tree = 2.09 MB, solutions = 8)
    575   548     1998.0000  2403     1932.0000     2000.0000  2569653    3.52%
    584   557     1998.0000  2560     1932.0000     2000.0000  2580690    3.52%
    588   561     1998.0000  2732     1932.0000     2000.0000  2614239    3.52%
    589   562     1998.0000  2709     1932.0000     2000.0000  2630139    3.52%
    590   563     1998.0000  2479     1932.0000     2000.0000  2651432    3.52%
    596   569     1998.0000  2933     1932.0000     2000.0000  2861803    3.52%
    597   570     1998.0000  2675     1932.0000     2000.0000  2890397    3.52%
    599   572     1998.0000  2845     1932.0000     2000.0000  3184727    3.52%
    600   573     1998.0000  2617     1932.0000     2000.0000  3314314    3.52%
    601   574     1998.0000  2525     1932.0000     2000.0000  3359073    3.52%
Elapsed time = 3980.65 sec. (1667954.08 ticks, tree = 2.20 MB, solutions = 8)
    605   578     1998.0000  2429     1932.0000     2000.0000  3369556    3.52%
    608   581     1998.0000  3016     1932.0000     2000.0000  3492114    3.52%
    609   582     1998.0000  2791     1932.0000     2000.0000  3634402    3.52%
    610   583     1998.0000  3042     1932.0000     2000.0000  3703644    3.52%
    611   584     1998.0000  2819     1932.0000     2000.0000  3771904    3.52%
    612   585     1998.0000  3181     1932.0000     2000.0000  3890883    3.52%
    613   586     1998.0000  2930     1932.0000     2000.0000  3997441    3.52%
    614   587     1998.0000  2942     1932.0000     2000.0000  4122760    3.52%
    615   588     1998.0000  2889     1932.0000     2000.0000  4293705    3.52%
    616   589     1997.8529  2549     1932.0000     2000.0000  4319531    3.52%
Elapsed time = 5088.71 sec. (2065088.16 ticks, tree = 2.25 MB, solutions = 8)
    618   591     1997.3750  2834     1932.0000     2000.0000  4399532    3.52%
    619   592     1996.7500  3051     1932.0000     2000.0000  4516216    3.52%

Performing restart 1

Repeating presolve.
Tried aggregator 1 time.
Reduced MIQP has 13934 rows, 4996 columns, and 43511 nonzeros.
Reduced MIQP has 4496 binaries, 500 generals, 0 SOSs, and 0 indicators.
Reduced MIQP objective Q matrix has 500 nonzeros.
Presolve time = 0.04 sec. (24.45 ticks)
Tried aggregator 1 time.
Reduced MIQP has 13934 rows, 4996 columns, and 43511 nonzeros.
Reduced MIQP has 4496 binaries, 500 generals, 0 SOSs, and 0 indicators.
Reduced MIQP objective Q matrix has 500 nonzeros.
Presolve time = 0.04 sec. (24.42 ticks)
Represolve time = 0.14 sec. (84.36 ticks)
    620     0     2000.0000  2540     1932.0000    Cuts: 1070  4707625    3.52%
    620     0     2000.0000  3479     1932.0000    Cuts: 1714  4738091    3.52%
    620     0     2000.0000  2658     1932.0000    Cuts: 1596  4816814    3.52%
    620     0     2000.0000  2726     1932.0000    Cuts: 1620  4870218    3.52%
    620     0     2000.0000  4740     1932.0000    Cuts: 1742  4913051    3.52%

GUB cover cuts applied:  2
Clique cuts applied:  779
Cover cuts applied:  1
Implied bound cuts applied:  22
Flow cuts applied:  1
Mixed integer rounding cuts applied:  106
Zero-half cuts applied:  3881
Gomory fractional cuts applied:  9

Root node processing (before b&c):
  Real time             =  467.24 sec. (226060.36 ticks)
Sequential b&c:
  Real time             = 6734.06 sec. (2805423.91 ticks)
                          ------------
Total (root+branch&cut) = 7201.30 sec. (3031484.27 ticks)
Solution is feasible.

---------------------
@@@ MIP_time_limit_feasible
>>> Benchmark sw100-6.cnf k 5 OPT 1932 TimeCost 7228.587658166885 TimeSolve 7226.714982032776 TimeRead 0.0068318843841552734 TimeTrans 1.8658442497253418
